NAME: random_points
TYPE: TSP
DIMENSION: 22
EDGE_WEIGHT_TYPE: EUC_2D
NODE_COORD_SECTION
1 212 729
2 304 798
3 267 515
4 642 682
5 493 182
6 264 427
7 440 494
8 513 655
9 95 183
10 691 821
11 120 34
12 345 822
13 548 496
14 301 963
15 225 701
16 10 192
17 140 875
18 787 427
19 872 846
20 838 675
21 491 395
22 593 346
EOF
